<number of tasks>
20

<cycle time>
1000

<order strength>
0,511


<task times>
1 395
2 464
3 408
4 397
5 503
6 330
7 638
8 569
9 777
10 476
11 442
12 628
13 624
14 638
15 457
16 412
17 490
18 364
19 569
20 549

<precedence relations>
1,3
1,4
1,5
2,4
2,5
3,6
4,7
4,8
4,9
5,8
5,9
6,11
7,13
8,10
8,12
8,14
9,14
10,15
11,18
12,16
13,17
14,18
15,19
16,19
17,19
18,19
18,20

<end>
